42	0

0	2	3	2
6	1	4
10	1	4
5	1	5
3	1	6
4	1	7
5	1	8
4	1	9
2	1	10
9	2	11	12
10	2	13	14
10	2	13	14
9	1	15
9	1	15
10	1	16
6	2	17	18
4	1	19
2	1	19
3	2	20	21
3	1	22
4	1	22
2	1	23
6	2	24	25
2	1	26
7	1	26
1	1	27
10	2	28	29
10	1	31
5	1	30
3	1	31
7	3	32	33	34
10	1	35
8	1	35
9	1	35
7	3	36	37	39
6	1	38
7	1	38
1	1	40
8	1	40
7	1	41
4	1	42
0	0
